84
24
0
83
26
35
20
22
89
20
17
21
15
103
66
22
44
21
92
32
106
50
0
36
64
36
0
41
0
0
33
39
20
38
14
0
33
39
83
23
58
30
31
13
22
31
0
64
14
0
25
35
57
96
19
0
24
83
53
51
71
118
106
23
38
84
55
116
59
208
0
54
112
14
36
22
0
20
0
41
0
48
50
52
97
0
47
11
27
39
16
30
55
21
86
0
0
28
0
28
